128
100
20
1
12
4
11
1
7
21
7
7
18
18
12
7
6
14
1
9
12
13
21
4
11
1
1
17
5
10
12
14
16
15
2
12
3
8
2
11
23
9
14
14
9
20
3
4
21
5
23
22
22
8
20
25
20
4
18
11
13
2
23
3
20
2
7
1
12
14
4
5
9
14
8
2
14
7
19
14
17
21
1
5
25
25
21
2
12
25
18
18
11
9
7
10
1
16
8
2
17
18
3
22
12
14
23
1
8
25
9
20
21
2
20
3
24
10
18
5
2
2
25
5
6
13
14
21
7
22
